22805.01
0 68 49 79 51 97 41 4 36 75 44 5 77 61 96 70 59 58 69 74 31 67 34 45 35 14 63 17 82 94 48 27 80 6 21 29 25 10 23 56 24 16 85 78 7 71 91 72 57 95 1 15 87 30 83 99 60 38 19 98 47 39 66 43 46 81 50 62 28 37 76 73 90 33 64 22 88 20 42 9 93 53 92 40 3 12 18 65 26 13 8 89 55 32 52 54 2 11 86 84